3 3 2
30 2 57 1 65 2 57 0 63 1 72 2 86 1 92 0 17 2 46 0 92 2 58 1 16 0 71 2 30 1 26 0 67 2 49 1 67 2 34 1 98 0 18 2 26 1 32 0 61 2 76 1 12 0 48 1 85 2 3 1 95 
30 0 21 1 23 0 56 2 7 0 89 2 2 1 78 0 81 2 66 0 70 2 63 0 61 2 60 0 70 2 3 1 51 0 43 1 9 2 90 1 51 0 67 2 95 0 74 1 96 0 80 1 62 0 0 2 82 1 64 2 38 
30 0 44 1 3 2 5 1 48 2 5 1 70 0 25 1 48 2 76 0 30 1 9 0 43 1 83 2 66 0 64 2 28 0 48 2 82 0 6 1 53 2 86 1 41 0 57 2 57 0 59 1 40 0 86 1 12 0 35 2 97 

-------------
